DATASET = "thpack4";
INSTANCE = "052";

WIDTH = 233;
HEIGHT = 220;
LENGTH = 587;

NO_OF_SHAPES = 10;
size = [|
  96,72,31 |
  75,72,47 |
  80,25,20 |
  114,94,61 |
  100,40,39 |
  72,51,48 |
  36,28,24 |
  85,58,35 |
  85,84,58 |
  95,48,24 |
|];

verticality = [|
  0,0,1 |
  1,1,1 |
  0,1,1 |
  1,1,1 |
  0,1,1 |
  1,1,1 |
  1,1,1 |
  0,1,1 |
  1,1,1 |
  0,0,1 |
|];

box_count = [
  12,
  16,
  17,
  10,
  15,
  13,
  12,
  18,
  16,
  14,
];
